
Gurobi 12.0.2 (mac64[arm], Python) logging started Wed May 28 13:07:55 2025

Set parameter Username
Set parameter LicenseID to value 2671963
Set parameter LogFile to value "gurobi.log"
Academic license - for non-commercial use only - expires 2026-05-28
